<number of tasks>
45

<cycle time>
110

<task times>
1 9
2 9
3 10
4 10
5 17
6 17
7 13
8 13
9 20
10 20
11 10
12 11
13 6
14 22
15 11
16 19
17 12
18 3
19 7
20 4
21 55
22 14
23 27
24 29
25 26
26 6
27 5
28 24
29 4
30 5
31 7
32 4
33 15
34 3
35 7
36 9
37 4
38 7
39 5
40 4
41 21
42 12
43 6
44 5
45 5

<precedence relations>
1,3
1,7
2,4
2,8
3,5
4,6
5,9
6,10
7,9
7,14
8,10
8,14
9,41
10,41
11,13
12,13
12,37
13,14
13,15
14,17
14,25
14,29
14,30
14,31
14,32
15,16
15,18
15,23
15,24
16,19
17,26
17,27
18,19
19,20
19,33
20,21
21,22
22,28
23,33
24,33
25,26
26,38
27,28
27,33
28,38
29,41
30,41
31,41
32,41
33,34
33,35
33,36
34,38
35,40
36,38
37,43
38,40
39,41
40,41
41,42
42,44
42,45

<setup times forward>
1,2:2
1,3:1
1,4:1
1,6:1
1,8:2
1,10:1
1,11:3
1,13:1
1,15:3
1,16:3
1,18:1
1,19:1
1,20:2
1,21:2
1,22:2
1,23:1
1,24:1
1,37:3
1,39:1
2,1:2
2,3:3
2,4:1
2,5:1
2,7:2
2,8:4
2,9:1
2,11:5
2,12:2
2,13:1
2,15:5
2,16:5
2,18:3
2,19:1
2,22:4
2,23:1
2,24:3
2,37:5
2,39:3
2,43:2
3,2:3
3,4:2
3,5:2
3,7:1
3,8:1
3,11:2
3,12:1
3,13:2
3,14:3
3,15:2
3,16:2
3,17:3
3,19:2
3,20:3
3,21:3
3,22:1
3,23:2
3,26:1
3,27:2
3,28:2
3,29:2
3,30:1
3,31:3
3,32:3
3,33:1
3,34:1
3,35:2
3,36:2
3,37:2
3,38:3
3,40:1
3,43:1
4,1:1
4,3:2
4,6:2
4,7:1
4,8:3
4,11:4
4,12:1
4,14:1
4,15:4
4,16:4
4,17:1
4,18:2
4,20:1
4,21:1
4,22:3
4,24:2
4,25:2
4,26:3
4,27:4
4,29:4
4,30:1
4,31:1
4,32:1
4,33:1
4,34:1
4,35:4
4,37:4
4,38:1
4,39:2
4,40:3
4,43:1
5,2:1
5,6:2
5,7:1
5,8:3
5,10:2
5,11:4
5,12:1
5,14:1
5,15:4
5,16:4
5,17:1
5,18:2
5,20:1
5,21:1
5,22:3
5,24:2
5,25:2
5,26:3
5,27:4
5,29:4
5,30:1
5,31:1
5,32:1
5,33:1
5,34:1
5,35:4
5,37:4
5,38:1
5,39:2
5,40:3
5,43:1
6,1:1
6,5:2
6,7:1
6,8:1
6,9:2
6,11:2
6,12:1
6,13:2
6,14:3
6,15:2
6,16:2
6,17:3
6,19:2
6,20:3
6,21:3
6,22:1
6,23:2
6,26:1
6,27:2
6,28:2
6,29:2
6,30:1
6,31:3
6,32:3
6,33:1
6,34:1
6,35:2
6,36:2
6,37:2
6,38:3
6,40:1
6,43:1
7,2:2
7,3:1
7,4:1
7,5:1
7,6:1
7,8:2
7,9:1
7,10:1
7,11:3
7,13:1
7,14:2
7,15:3
7,16:3
7,18:1
7,19:1
7,20:2
7,21:2
7,22:2
7,23:1
7,24:1
7,37:3
7,39:1
8,1:2
8,3:1
8,4:3
8,5:3
8,6:1
8,7:2
8,9:3
8,10:1
8,11:1
8,12:2
8,13:3
8,14:4
8,15:1
8,16:1
8,18:1
8,19:3
8,20:4
8,21:4
8,23:3
8,24:1
8,37:1
8,39:1
8,43:2
9,2:1
9,6:2
9,8:3
9,10:2
9,11:4
9,12:1
9,14:1
9,15:4
9,16:4
9,17:1
9,18:2
9,20:1
9,21:1
9,22:3
9,24:2
9,25:2
9,26:3
9,27:4
9,29:4
9,30:1
9,31:1
9,32:1
9,33:1
9,34:1
9,35:4
9,37:4
9,38:1
9,39:2
9,40:3
9,41:4
9,43:1
10,1:1
10,5:2
10,7:1
10,9:2
10,11:2
10,12:1
10,13:2
10,14:3
10,15:2
10,16:2
10,17:3
10,19:2
10,20:3
10,21:3
10,22:1
10,23:2
10,26:1
10,27:2
10,28:2
10,29:2
10,30:1
10,31:3
10,32:3
10,33:1
10,34:1
10,35:2
10,36:2
10,37:2
10,38:3
10,40:1
10,41:2
10,43:1
11,1:3
11,2:5
11,3:2
11,4:4
11,5:4
11,6:2
11,7:3
11,8:1
11,9:4
11,10:2
11,12:3
11,13:4
11,39:2
11,43:3
12,2:2
12,3:1
12,4:1
12,5:1
12,6:1
12,8:2
12,9:1
12,10:1
12,11:3
12,13:1
12,37:3
12,39:1
13,1:1
13,2:1
13,3:2
13,6:2
13,7:1
13,8:3
13,10:2
13,14:1
13,15:4
13,37:4
13,39:2
13,43:1
14,3:3
14,4:1
14,5:1
14,6:3
14,9:1
14,10:3
14,15:5
14,16:5
14,18:3
14,19:1
14,22:4
14,23:1
14,24:3
14,25:3
14,29:5
14,30:2
14,37:5
14,39:3
14,43:2
15,1:3
15,2:5
15,3:2
15,4:4
15,5:4
15,6:2
15,7:3
15,8:1
15,9:4
15,10:2
15,14:5
15,17:5
15,18:2
15,23:4
15,24:2
15,25:2
15,26:1
15,30:3
15,31:5
15,32:5
15,39:2
15,43:3
16,1:3
16,2:5
16,3:2
16,4:4
16,5:4
16,6:2
16,7:3
16,8:1
16,9:4
16,10:2
16,14:5
16,17:5
16,18:2
16,19:4
16,23:4
16,24:2
16,25:2
16,26:1
16,30:3
16,31:5
16,32:5
16,39:2
16,43:3
17,3:3
17,4:1
17,5:1
17,6:3
17,9:1
17,10:3
17,15:5
17,16:5
17,18:3
17,19:1
17,22:4
17,23:1
17,24:3
17,25:3
17,26:4
17,27:5
17,29:5
17,30:2
17,37:5
17,39:3
17,43:2
18,1:1
18,2:3
18,4:2
18,5:2
18,7:1
18,8:1
18,9:2
18,14:3
18,16:2
18,17:3
18,19:2
18,23:2
18,26:1
18,27:2
18,29:2
18,30:1
18,31:3
18,32:3
18,37:2
18,43:1
19,1:1
19,2:1
19,3:2
19,6:2
19,7:1
19,8:3
19,10:2
19,14:1
19,17:1
19,20:1
19,24:2
19,25:2
19,26:3
19,27:4
19,29:4
19,30:1
19,31:1
19,32:1
19,33:1
19,37:4
19,39:2
19,43:1
20,1:2
20,3:3
20,4:1
20,5:1
20,6:3
20,7:2
20,8:4
20,9:1
20,10:3
20,23:1
20,24:3
20,25:3
20,26:4
20,27:5
20,29:5
20,30:2
20,33:2
20,34:2
20,35:5
20,36:1
20,37:5
20,39:3
20,43:2
21,1:2
21,3:3
21,4:1
21,5:1
21,6:3
21,7:2
21,8:4
21,9:1
21,10:3
21,22:4
21,23:1
21,24:3
21,25:3
21,26:4
21,27:5
21,29:5
21,30:2
21,33:2
21,34:2
21,35:5
21,36:1
21,37:5
21,39:3
21,43:2
22,1:2
22,2:4
22,3:1
22,4:3
22,5:3
22,6:1
22,7:2
22,9:3
22,10:1
22,14:4
22,17:4
22,23:3
22,24:1
22,25:1
22,27:1
22,28:3
22,29:1
22,30:2
22,31:4
22,32:4
22,33:2
22,34:2
22,35:1
22,36:3
22,37:1
22,39:1
22,43:2
23,1:1
23,2:1
23,3:2
23,6:2
23,7:1
23,8:3
23,10:2
23,14:1
23,16:4
23,17:1
23,18:2
23,20:1
23,21:1
23,22:3
23,24:2
23,25:2
23,26:3
23,27:4
23,29:4
23,30:1
23,31:1
23,32:1
23,33:1
23,37:4
23,39:2
23,43:1
24,1:1
24,2:3
24,4:2
24,5:2
24,7:1
24,8:1
24,9:2
24,14:3
24,16:2
24,17:3
24,19:2
24,20:3
24,21:3
24,22:1
24,23:2
24,26:1
24,27:2
24,28:2
24,29:2
24,30:1
24,31:3
24,32:3
24,33:1
24,37:2
24,43:1
25,4:2
25,5:2
25,9:2
25,15:2
25,16:2
25,17:3
25,19:2
25,20:3
25,21:3
25,22:1
25,23:2
25,26:1
25,27:2
25,28:2
25,29:2
25,30:1
25,31:3
25,32:3
25,33:1
25,34:1
25,35:2
25,36:2
25,37:2
25,43:1
26,3:1
26,4:3
26,5:3
26,6:1
26,9:3
26,10:1
26,15:1
26,16:1
26,18:1
26,19:3
26,20:4
26,21:4
26,23:3
26,24:1
26,27:1
26,28:3
26,29:1
26,30:2
26,31:4
26,32:4
26,33:2
26,34:2
26,35:1
26,36:3
26,37:1
26,38:4
26,39:1
26,43:2
27,3:2
27,4:4
27,5:4
27,6:2
27,9:4
27,10:2
27,18:2
27,19:4
27,20:5
27,21:5
27,22:1
27,23:4
27,24:2
27,25:2
27,26:1
27,28:4
27,30:3
27,31:5
27,32:5
27,33:3
27,39:2
27,43:3
28,3:2
28,6:2
28,10:2
28,24:2
28,25:2
28,26:3
28,29:4
28,30:1
28,31:1
28,32:1
28,33:1
28,34:1
28,35:4
28,37:4
28,38:1
28,39:2
28,43:1
29,3:2
29,4:4
29,5:4
29,6:2
29,9:4
29,10:2
29,17:5
29,18:2
29,19:4
29,20:5
29,21:5
29,22:1
29,23:4
29,24:2
29,25:2
29,26:1
29,28:4
29,30:3
29,31:5
29,32:5
29,33:3
29,34:3
29,36:4
29,38:5
29,39:2
29,40:1
29,43:3
30,3:1
30,4:1
30,5:1
30,6:1
30,9:1
30,10:1
30,15:3
30,16:3
30,17:2
30,18:1
30,19:1
30,20:2
30,21:2
30,22:2
30,23:1
30,24:1
30,25:1
30,26:2
30,27:3
30,28:1
30,29:3
30,31:2
30,32:2
30,35:3
30,36:1
30,37:3
30,38:2
30,39:1
30,40:2
30,41:3
31,3:3
31,4:1
31,5:1
31,6:3
31,9:1
31,10:3
31,15:5
31,16:5
31,18:3
31,19:1
31,22:4
31,23:1
31,24:3
31,25:3
31,26:4
31,27:5
31,28:1
31,29:5
31,30:2
31,33:2
31,34:2
31,35:5
31,36:1
31,37:5
31,39:3
31,40:4
31,41:5
31,43:2
32,3:3
32,4:1
32,5:1
32,6:3
32,9:1
32,10:3
32,15:5
32,16:5
32,18:3
32,19:1
32,22:4
32,23:1
32,24:3
32,25:3
32,26:4
32,27:5
32,28:1
32,29:5
32,30:2
32,33:2
32,34:2
32,35:5
32,36:1
32,37:5
32,39:3
32,40:4
32,41:5
32,43:2
33,3:1
33,4:1
33,5:1
33,6:1
33,9:1
33,10:1
33,20:2
33,21:2
33,22:2
33,25:1
33,26:2
33,28:1
33,29:3
33,31:2
33,32:2
33,35:3
33,36:1
33,37:3
33,39:1
34,3:1
34,4:1
34,5:1
34,6:1
34,9:1
34,10:1
34,20:2
34,21:2
34,22:2
34,25:1
34,26:2
34,28:1
34,29:3
34,31:2
34,32:2
34,35:3
34,36:1
34,37:3
34,38:2
34,39:1
35,3:2
35,4:4
35,5:4
35,6:2
35,9:4
35,10:2
35,20:5
35,21:5
35,22:1
35,25:2
35,26:1
35,28:4
35,30:3
35,31:5
35,32:5
35,34:3
35,36:4
35,38:5
35,39:2
35,40:1
35,43:3
36,3:2
36,6:2
36,10:2
36,20:1
36,21:1
36,22:3
36,25:2
36,26:3
36,29:4
36,30:1
36,31:1
36,32:1
36,34:1
36,35:4
36,37:4
36,38:1
36,39:2
36,43:1
37,1:3
37,2:5
37,3:2
37,4:4
37,5:4
37,6:2
37,7:3
37,8:1
37,9:4
37,10:2
37,13:4
37,14:5
37,17:5
37,18:2
37,19:4
37,20:5
37,21:5
37,22:1
37,23:4
37,24:2
37,25:2
37,26:1
37,28:4
37,30:3
37,31:5
37,32:5
37,33:3
37,34:3
37,36:4
37,38:5
37,39:2
37,40:1
37,43:3
37,44:3
37,45:2
38,3:3
38,4:1
38,5:1
38,6:3
38,9:1
38,10:3
38,29:5
38,30:2
38,35:5
38,37:5
38,39:3
38,40:4
38,43:2
39,1:1
39,2:3
39,4:2
39,5:2
39,7:1
39,8:1
39,9:2
39,11:2
39,12:1
39,13:2
39,14:3
39,15:2
39,16:2
39,17:3
39,19:2
39,20:3
39,21:3
39,22:1
39,23:2
39,26:1
39,27:2
39,28:2
39,29:2
39,30:1
39,31:3
39,32:3
39,33:1
39,34:1
39,35:2
39,36:2
39,37:2
39,38:3
39,40:1
39,41:2
39,43:1
40,3:1
40,4:3
40,5:3
40,6:1
40,9:3
40,10:1
40,29:1
40,30:2
40,31:4
40,32:4
40,37:1
40,39:1
40,41:1
40,43:2
41,43:3
42,43:3
42,44:3
42,45:2
43,2:2
43,3:1
43,4:1
43,5:1
43,6:1
43,8:2
43,9:1
43,10:1
43,11:3
43,13:1
43,14:2
43,15:3
43,16:3
43,17:2
43,18:1
43,19:1
43,20:2
43,21:2
43,22:2
43,23:1
43,24:1
43,25:1
43,26:2
43,27:3
43,28:1
43,29:3
43,31:2
43,32:2
43,35:3
43,36:1
43,38:2
43,39:1
43,40:2
43,41:3
43,42:3
43,45:1
44,37:3
44,45:1
45,37:2
45,43:1
45,44:1

<setup times backward>
1,1:6
1,2:4
1,4:5
1,6:7
1,8:8
1,10:7
1,11:9
1,12:6
1,13:5
1,15:9
1,16:9
1,18:7
1,19:5
1,20:4
1,21:4
1,22:8
1,23:5
1,24:7
1,37:9
1,39:7
1,43:6
2,1:8
2,2:6
2,3:9
2,5:7
2,7:8
2,9:7
2,11:11
2,12:8
2,13:7
2,15:11
2,16:11
2,18:9
2,19:7
2,20:6
2,21:6
2,22:10
2,23:7
2,24:9
2,37:11
2,39:9
2,43:8
3,1:5
3,2:3
3,3:6
3,4:4
3,6:6
3,7:5
3,8:7
3,10:6
3,11:8
3,12:5
3,13:4
3,14:3
3,15:8
3,16:8
3,17:3
3,18:6
3,19:4
3,20:3
3,21:3
3,22:7
3,23:4
3,24:6
3,25:6
3,26:7
3,27:8
3,28:4
3,29:8
3,30:5
3,31:3
3,32:3
3,33:5
3,34:5
3,35:8
3,36:4
3,37:8
3,38:3
3,39:6
3,40:7
3,43:5
4,1:7
4,2:5
4,3:8
4,4:6
4,5:6
4,7:7
4,8:9
4,9:6
4,11:10
4,12:7
4,13:6
4,14:5
4,15:10
4,16:10
4,17:5
4,18:8
4,19:6
4,20:5
4,21:5
4,22:9
4,23:6
4,24:8
4,25:8
4,26:9
4,27:10
4,28:6
4,29:10
4,30:7
4,31:5
4,32:5
4,33:7
4,34:7
4,35:10
4,36:6
4,37:10
4,38:5
4,39:8
4,40:9
4,43:7
5,1:7
5,2:5
5,3:8
5,4:6
5,5:6
5,6:8
5,7:7
5,8:9
5,10:8
5,11:10
5,12:7
5,13:6
5,14:5
5,15:10
5,16:10
5,17:5
5,18:8
5,19:6
5,20:5
5,21:5
5,22:9
5,23:6
5,24:8
5,25:8
5,26:9
5,27:10
5,28:6
5,29:10
5,30:7
5,31:5
5,32:5
5,33:7
5,34:7
5,35:10
5,36:6
5,37:10
5,38:5
5,39:8
5,40:9
5,43:7
6,1:5
6,2:3
6,3:6
6,4:4
6,5:4
6,6:6
6,7:5
6,8:7
6,9:4
6,11:8
6,12:5
6,13:4
6,14:3
6,15:8
6,16:8
6,17:3
6,18:6
6,19:4
6,20:3
6,21:3
6,22:7
6,23:4
6,24:6
6,25:6
6,26:7
6,27:8
6,28:4
6,29:8
6,30:5
6,31:3
6,32:3
6,33:5
6,34:5
6,35:8
6,36:4
6,37:8
6,38:3
6,39:6
6,40:7
6,43:5
7,1:6
7,2:4
7,3:7
7,4:5
7,5:5
7,6:7
7,7:6
7,8:8
7,10:7
7,11:9
7,12:6
7,13:5
7,15:9
7,16:9
7,18:7
7,19:5
7,20:4
7,21:4
7,22:8
7,23:5
7,24:7
7,37:9
7,39:7
7,43:6
8,1:4
8,2:2
8,3:5
8,4:3
8,5:3
8,6:5
8,7:4
8,8:6
8,9:3
8,11:7
8,12:4
8,13:3
8,15:7
8,16:7
8,18:5
8,19:3
8,20:2
8,21:2
8,22:6
8,23:3
8,24:5
8,37:7
8,39:5
8,43:4
9,1:7
9,2:5
9,3:8
9,4:6
9,5:6
9,6:8
9,7:7
9,8:9
9,9:6
9,10:8
9,11:10
9,12:7
9,13:6
9,14:5
9,15:10
9,16:10
9,17:5
9,18:8
9,19:6
9,20:5
9,21:5
9,22:9
9,23:6
9,24:8
9,25:8
9,26:9
9,27:10
9,28:6
9,29:10
9,30:7
9,31:5
9,32:5
9,33:7
9,34:7
9,35:10
9,36:6
9,37:10
9,38:5
9,39:8
9,40:9
9,43:7
10,1:5
10,2:3
10,3:6
10,4:4
10,5:4
10,6:6
10,7:5
10,8:7
10,9:4
10,10:6
10,11:8
10,12:5
10,13:4
10,14:3
10,15:8
10,16:8
10,17:3
10,18:6
10,19:4
10,20:3
10,21:3
10,22:7
10,23:4
10,24:6
10,25:6
10,26:7
10,27:8
10,28:4
10,29:8
10,30:5
10,31:3
10,32:3
10,33:5
10,34:5
10,35:8
10,36:4
10,37:8
10,38:3
10,39:6
10,40:7
10,43:5
11,1:3
11,2:1
11,3:4
11,4:2
11,5:2
11,6:4
11,7:3
11,8:5
11,9:2
11,10:4
11,11:6
11,12:3
11,37:6
11,39:4
11,43:3
12,1:6
12,2:4
12,3:7
12,4:5
12,5:5
12,6:7
12,7:6
12,8:8
12,9:5
12,10:7
12,11:9
12,12:6
12,39:7
13,1:7
13,2:5
13,3:8
13,4:6
13,5:6
13,6:8
13,7:7
13,8:9
13,9:6
13,10:8
13,11:10
13,12:7
13,13:6
13,37:10
13,39:8
13,43:7
14,1:8
14,2:6
14,3:9
14,4:7
14,5:7
14,6:9
14,7:8
14,8:10
14,9:7
14,10:9
14,11:11
14,12:8
14,13:7
14,14:6
14,15:11
14,16:11
14,18:9
14,19:7
14,20:6
14,21:6
14,22:10
14,23:7
14,24:9
14,37:11
14,39:9
14,43:8
15,1:3
15,2:1
15,3:4
15,4:2
15,5:2
15,6:4
15,7:3
15,8:5
15,9:2
15,10:4
15,11:6
15,12:3
15,13:2
15,14:1
15,15:6
15,17:1
15,25:4
15,26:5
15,27:6
15,29:6
15,30:3
15,31:1
15,32:1
15,37:6
15,39:4
15,43:3
16,1:3
16,2:1
16,3:4
16,4:2
16,5:2
16,6:4
16,7:3
16,8:5
16,9:2
16,10:4
16,11:6
16,12:3
16,13:2
16,14:1
16,15:6
16,16:6
16,17:1
16,18:4
16,23:2
16,24:4
16,25:4
16,26:5
16,27:6
16,29:6
16,30:3
16,31:1
16,32:1
16,37:6
16,39:4
16,43:3
17,1:8
17,2:6
17,3:9
17,4:7
17,5:7
17,6:9
17,7:8
17,8:10
17,9:7
17,10:9
17,11:11
17,12:8
17,13:7
17,14:6
17,15:11
17,16:11
17,17:6
17,18:9
17,19:7
17,20:6
17,21:6
17,22:10
17,23:7
17,24:9
17,25:9
17,29:11
17,30:8
17,31:6
17,32:6
17,37:11
17,39:9
17,43:8
18,1:5
18,2:3
18,3:6
18,4:4
18,5:4
18,6:6
18,7:5
18,8:7
18,9:4
18,10:6
18,11:8
18,12:5
18,13:4
18,14:3
18,15:8
18,16:8
18,17:3
18,18:6
18,23:4
18,24:6
18,25:6
18,26:7
18,27:8
18,29:8
18,30:5
18,31:3
18,32:3
18,37:8
18,39:6
18,43:5
19,1:7
19,2:5
19,3:8
19,4:6
19,5:6
19,6:8
19,7:7
19,8:9
19,9:6
19,10:8
19,11:10
19,12:7
19,13:6
19,14:5
19,15:10
19,16:10
19,17:5
19,18:8
19,19:6
19,23:6
19,24:8
19,25:8
19,26:9
19,27:10
19,29:10
19,30:7
19,31:5
19,32:5
19,37:10
19,39:8
19,43:7
20,1:8
20,2:6
20,3:9
20,4:7
20,5:7
20,6:9
20,7:8
20,8:10
20,9:7
20,10:9
20,11:11
20,12:8
20,13:7
20,14:6
20,15:11
20,16:11
20,17:6
20,18:9
20,19:7
20,20:6
20,23:7
20,24:9
20,25:9
20,26:10
20,27:11
20,29:11
20,30:8
20,31:6
20,32:6
20,33:8
20,34:8
20,35:11
20,36:7
20,37:11
20,39:9
20,43:8
21,1:8
21,2:6
21,3:9
21,4:7
21,5:7
21,6:9
21,7:8
21,8:10
21,9:7
21,10:9
21,11:11
21,12:8
21,13:7
21,14:6
21,15:11
21,16:11
21,17:6
21,18:9
21,19:7
21,20:6
21,21:6
21,23:7
21,24:9
21,25:9
21,26:10
21,27:11
21,29:11
21,30:8
21,31:6
21,32:6
21,33:8
21,34:8
21,35:11
21,36:7
21,37:11
21,39:9
21,43:8
22,1:4
22,2:2
22,3:5
22,4:3
22,5:3
22,6:5
22,7:4
22,8:6
22,9:3
22,10:5
22,11:7
22,12:4
22,13:3
22,14:2
22,15:7
22,16:7
22,17:2
22,18:5
22,19:3
22,20:2
22,21:2
22,22:6
22,23:3
22,24:5
22,25:5
22,26:6
22,27:7
22,29:7
22,30:4
22,31:2
22,32:2
22,33:4
22,34:4
22,35:7
22,36:3
22,37:7
22,39:5
22,43:4
23,1:7
23,2:5
23,3:8
23,4:6
23,5:6
23,6:8
23,7:7
23,8:9
23,9:6
23,10:8
23,11:10
23,12:7
23,13:6
23,14:5
23,15:10
23,16:10
23,17:5
23,18:8
23,19:6
23,20:5
23,21:5
23,22:9
23,23:6
23,24:8
23,25:8
23,26:9
23,27:10
23,28:6
23,29:10
23,30:7
23,31:5
23,32:5
23,37:10
23,39:8
23,43:7
24,1:5
24,2:3
24,3:6
24,4:4
24,5:4
24,6:6
24,7:5
24,8:7
24,9:4
24,10:6
24,11:8
24,12:5
24,13:4
24,14:3
24,15:8
24,16:8
24,17:3
24,18:6
24,19:4
24,20:3
24,21:3
24,22:7
24,23:4
24,24:6
24,25:6
24,26:7
24,27:8
24,28:4
24,29:8
24,30:5
24,31:3
24,32:3
24,37:8
24,39:6
24,43:5
25,1:5
25,2:3
25,3:6
25,4:4
25,5:4
25,6:6
25,7:5
25,8:7
25,9:4
25,10:6
25,11:8
25,12:5
25,13:4
25,14:3
25,15:8
25,16:8
25,17:3
25,18:6
25,19:4
25,20:3
25,21:3
25,22:7
25,23:4
25,24:6
25,25:6
25,27:8
25,28:4
25,29:8
25,30:5
25,31:3
25,32:3
25,33:5
25,34:5
25,35:8
25,36:4
25,37:8
25,39:6
25,43:5
26,1:4
26,2:2
26,3:5
26,4:3
26,5:3
26,6:5
26,7:4
26,8:6
26,9:3
26,10:5
26,11:7
26,12:4
26,13:3
26,14:2
26,15:7
26,16:7
26,17:2
26,18:5
26,19:3
26,20:2
26,21:2
26,22:6
26,23:3
26,24:5
26,25:5
26,26:6
26,27:7
26,28:3
26,29:7
26,30:4
26,31:2
26,32:2
26,33:4
26,34:4
26,35:7
26,36:3
26,37:7
26,39:5
26,43:4
27,1:3
27,2:1
27,3:4
27,4:2
27,5:2
27,6:4
27,7:3
27,8:5
27,9:2
27,10:4
27,11:6
27,12:3
27,13:2
27,14:1
27,15:6
27,16:6
27,17:1
27,18:4
27,19:2
27,20:1
27,21:1
27,22:5
27,23:2
27,24:4
27,25:4
27,26:5
27,27:6
27,29:6
27,30:3
27,31:1
27,32:1
27,37:6
27,39:4
27,43:3
28,1:7
28,2:5
28,3:8
28,4:6
28,5:6
28,6:8
28,7:7
28,8:9
28,9:6
28,10:8
28,11:10
28,12:7
28,13:6
28,14:5
28,15:10
28,16:10
28,17:5
28,18:8
28,19:6
28,20:5
28,21:5
28,22:9
28,23:6
28,24:8
28,25:8
28,26:9
28,27:10
28,28:6
28,29:10
28,30:7
28,31:5
28,32:5
28,33:7
28,34:7
28,35:10
28,36:6
28,37:10
28,39:8
28,43:7
29,1:3
29,2:1
29,3:4
29,4:2
29,5:2
29,6:4
29,7:3
29,8:5
29,9:2
29,10:4
29,11:6
29,12:3
29,13:2
29,14:1
29,15:6
29,16:6
29,17:1
29,18:4
29,19:2
29,20:1
29,21:1
29,22:5
29,23:2
29,24:4
29,25:4
29,26:5
29,27:6
29,28:2
29,29:6
29,30:3
29,31:1
29,32:1
29,33:3
29,34:3
29,35:6
29,36:2
29,37:6
29,38:1
29,39:4
29,40:5
29,43:3
30,1:6
30,2:4
30,3:7
30,4:5
30,5:5
30,6:7
30,7:6
30,8:8
30,9:5
30,10:7
30,11:9
30,12:6
30,13:5
30,14:4
30,15:9
30,16:9
30,17:4
30,18:7
30,19:5
30,20:4
30,21:4
30,22:8
30,23:5
30,24:7
30,25:7
30,26:8
30,27:9
30,28:5
30,29:9
30,30:6
30,31:4
30,32:4
30,33:6
30,34:6
30,35:9
30,36:5
30,37:9
30,38:4
30,39:7
30,40:8
30,43:6
31,1:8
31,2:6
31,3:9
31,4:7
31,5:7
31,6:9
31,7:8
31,8:10
31,9:7
31,10:9
31,11:11
31,12:8
31,13:7
31,14:6
31,15:11
31,16:11
31,17:6
31,18:9
31,19:7
31,20:6
31,21:6
31,22:10
31,23:7
31,24:9
31,25:9
31,26:10
31,27:11
31,28:7
31,29:11
31,30:8
31,31:6
31,32:6
31,33:8
31,34:8
31,35:11
31,36:7
31,37:11
31,38:6
31,39:9
31,40:10
31,43:8
32,1:8
32,2:6
32,3:9
32,4:7
32,5:7
32,6:9
32,7:8
32,8:10
32,9:7
32,10:9
32,11:11
32,12:8
32,13:7
32,14:6
32,15:11
32,16:11
32,17:6
32,18:9
32,19:7
32,20:6
32,21:6
32,22:10
32,23:7
32,24:9
32,25:9
32,26:10
32,27:11
32,28:7
32,29:11
32,30:8
32,31:6
32,32:6
32,33:8
32,34:8
32,35:11
32,36:7
32,37:11
32,38:6
32,39:9
32,40:10
32,43:8
33,1:6
33,2:4
33,3:7
33,4:5
33,5:5
33,6:7
33,7:6
33,8:8
33,9:5
33,10:7
33,11:9
33,12:6
33,13:5
33,14:4
33,15:9
33,16:9
33,17:4
33,18:7
33,19:5
33,20:4
33,21:4
33,22:8
33,23:5
33,24:7
33,25:7
33,26:8
33,27:9
33,28:5
33,29:9
33,30:6
33,31:4
33,32:4
33,33:6
33,37:9
33,39:7
33,43:6
34,1:6
34,2:4
34,3:7
34,4:5
34,5:5
34,6:7
34,7:6
34,8:8
34,9:5
34,10:7
34,11:9
34,12:6
34,13:5
34,14:4
34,15:9
34,16:9
34,17:4
34,18:7
34,19:5
34,20:4
34,21:4
34,22:8
34,23:5
34,24:7
34,25:7
34,26:8
34,27:9
34,28:5
34,29:9
34,30:6
34,31:4
34,32:4
34,33:6
34,34:6
34,35:9
34,36:5
34,37:9
34,39:7
34,43:6
35,1:3
35,2:1
35,3:4
35,4:2
35,5:2
35,6:4
35,7:3
35,8:5
35,9:2
35,10:4
35,11:6
35,12:3
35,13:2
35,14:1
35,15:6
35,16:6
35,17:1
35,18:4
35,19:2
35,20:1
35,21:1
35,22:5
35,23:2
35,24:4
35,25:4
35,26:5
35,27:6
35,28:2
35,29:6
35,30:3
35,31:1
35,32:1
35,33:3
35,34:3
35,35:6
35,36:2
35,37:6
35,38:1
35,39:4
35,43:3
36,1:7
36,2:5
36,3:8
36,4:6
36,5:6
36,6:8
36,7:7
36,8:9
36,9:6
36,10:8
36,11:10
36,12:7
36,13:6
36,14:5
36,15:10
36,16:10
36,17:5
36,18:8
36,19:6
36,20:5
36,21:5
36,22:9
36,23:6
36,24:8
36,25:8
36,26:9
36,27:10
36,28:6
36,29:10
36,30:7
36,31:5
36,32:5
36,33:7
36,34:7
36,35:10
36,36:6
36,37:10
36,39:8
36,43:7
37,1:3
37,2:1
37,3:4
37,4:2
37,5:2
37,6:4
37,7:3
37,8:5
37,9:2
37,10:4
37,11:6
37,12:3
37,13:2
37,14:1
37,15:6
37,16:6
37,17:1
37,18:4
37,19:2
37,20:1
37,21:1
37,22:5
37,23:2
37,24:4
37,25:4
37,26:5
37,27:6
37,28:2
37,29:6
37,30:3
37,31:1
37,32:1
37,33:3
37,34:3
37,35:6
37,36:2
37,37:6
37,38:1
37,39:4
37,40:5
37,41:6
37,42:6
37,44:3
37,45:4
38,1:8
38,2:6
38,3:9
38,4:7
38,5:7
38,6:9
38,7:8
38,8:10
38,9:7
38,10:9
38,11:11
38,12:8
38,13:7
38,14:6
38,15:11
38,16:11
38,17:6
38,18:9
38,19:7
38,20:6
38,21:6
38,22:10
38,23:7
38,24:9
38,25:9
38,26:10
38,27:11
38,28:7
38,29:11
38,30:8
38,31:6
38,32:6
38,33:8
38,34:8
38,35:11
38,36:7
38,37:11
38,38:6
38,39:9
38,43:8
39,1:5
39,2:3
39,3:6
39,4:4
39,5:4
39,6:6
39,7:5
39,8:7
39,9:4
39,10:6
39,11:8
39,12:5
39,13:4
39,14:3
39,15:8
39,16:8
39,17:3
39,18:6
39,19:4
39,20:3
39,21:3
39,22:7
39,23:4
39,24:6
39,25:6
39,26:7
39,27:8
39,28:4
39,29:8
39,30:5
39,31:3
39,32:3
39,33:5
39,34:5
39,35:8
39,36:4
39,37:8
39,38:3
39,39:6
39,40:7
39,43:5
40,1:4
40,2:2
40,3:5
40,4:3
40,5:3
40,6:5
40,7:4
40,8:6
40,9:3
40,10:5
40,11:7
40,12:4
40,13:3
40,14:2
40,15:7
40,16:7
40,17:2
40,18:5
40,19:3
40,20:2
40,21:2
40,22:6
40,23:3
40,24:5
40,25:5
40,26:6
40,27:7
40,28:3
40,29:7
40,30:4
40,31:2
40,32:2
40,33:4
40,34:4
40,35:7
40,36:3
40,37:7
40,38:2
40,39:5
40,40:6
40,43:4
41,1:3
41,2:1
41,3:4
41,4:2
41,5:2
41,6:4
41,7:3
41,8:5
41,9:2
41,10:4
41,11:6
41,12:3
41,13:2
41,14:1
41,15:6
41,16:6
41,17:1
41,18:4
41,19:2
41,20:1
41,21:1
41,22:5
41,23:2
41,24:4
41,25:4
41,26:5
41,27:6
41,28:2
41,29:6
41,30:3
41,31:1
41,32:1
41,33:3
41,34:3
41,35:6
41,36:2
41,37:6
41,38:1
41,39:4
41,40:5
41,41:6
41,43:3
42,1:3
42,2:1
42,3:4
42,4:2
42,5:2
42,6:4
42,7:3
42,8:5
42,9:2
42,10:4
42,11:6
42,12:3
42,13:2
42,14:1
42,15:6
42,16:6
42,17:1
42,18:4
42,19:2
42,20:1
42,21:1
42,22:5
42,23:2
42,24:4
42,25:4
42,26:5
42,27:6
42,28:2
42,29:6
42,30:3
42,31:1
42,32:1
42,33:3
42,34:3
42,35:6
42,36:2
42,37:6
42,38:1
42,39:4
42,40:5
42,41:6
42,42:6
42,43:3
43,1:6
43,2:4
43,3:7
43,4:5
43,5:5
43,6:7
43,7:6
43,8:8
43,9:5
43,10:7
43,11:9
43,12:6
43,13:5
43,14:4
43,15:9
43,16:9
43,17:4
43,18:7
43,19:5
43,20:4
43,21:4
43,22:8
43,23:5
43,24:7
43,25:7
43,26:8
43,27:9
43,28:5
43,29:9
43,30:6
43,31:4
43,32:4
43,33:6
43,34:6
43,35:9
43,36:5
43,37:9
43,38:4
43,39:7
43,40:8
43,41:9
43,42:9
43,43:6
43,44:6
43,45:7
44,1:6
44,2:4
44,3:7
44,4:5
44,5:5
44,6:7
44,7:6
44,8:8
44,9:5
44,10:7
44,11:9
44,12:6
44,13:5
44,14:4
44,15:9
44,16:9
44,17:4
44,18:7
44,19:5
44,20:4
44,21:4
44,22:8
44,23:5
44,24:7
44,25:7
44,26:8
44,27:9
44,28:5
44,29:9
44,30:6
44,31:4
44,32:4
44,33:6
44,34:6
44,35:9
44,36:5
44,37:9
44,38:4
44,39:7
44,40:8
44,41:9
44,42:9
44,43:6
44,44:6
44,45:7
45,1:5
45,2:3
45,3:6
45,4:4
45,5:4
45,6:6
45,7:5
45,8:7
45,9:4
45,10:6
45,11:8
45,12:5
45,13:4
45,14:3
45,15:8
45,16:8
45,17:3
45,18:6
45,19:4
45,20:3
45,21:3
45,22:7
45,23:4
45,24:6
45,25:6
45,26:7
45,27:8
45,28:4
45,29:8
45,30:5
45,31:3
45,32:3
45,33:5
45,34:5
45,35:8
45,36:4
45,37:8
45,38:3
45,39:6
45,40:7
45,41:8
45,42:8
45,43:5
45,44:5
45,45:6

<end>

<optimal SALBP-1 value>
6


<rand seed>
467321153

<Lower Bounds>
Lm1=6
Lms1=6
Lm2=1
Lm3=1
Lm4=6
Best=6

<Optimal Stations (Iterations: 10)>
7
